p cnf 891 1973
a 1 2 3 4 5 6 7 8 9 10 11 12 13 15 16 17 18 19 20 21 22 23 24 25 26 27 28 29 30 31 32 33 34 35 36 37 38 39 40 41 42 43 44 45 46 47 48 49 53 54 55 56 57 58 62 66 67 68 69 70 71 72 73 80 81 82 0
e 14 50 51 52 59 60 61 63 64 65 74 75 76 77 78 79 83 84 85 86 87 88 89 90 91 92 93 94 95 96 97 98 99 100 101 102 103 104 105 106 107 108 109 110 111 112 113 114 115 116 117 118 119 120 121 122 123 124 125 126 127 128 129 130 131 132 133 134 135 136 137 138 139 140 141 142 143 144 145 146 147 148 149 150 151 152 153 154 155 156 157 158 159 160 161 162 163 164 165 166 167 168 169 170 171 172 173 174 175 176 177 178 179 180 181 182 183 184 185 186 187 188 189 190 191 192 193 194 195 196 197 198 199 200 201 202 203 204 205 206 207 208 209 210 211 212 213 214 215 216 217 218 219 220 221 222 223 224 225 226 227 228 229 230 231 232 233 234 235 236 237 238 239 240 241 242 243 244 245 246 247 248 249 250 251 252 253 254 255 256 257 258 259 260 261 262 263 264 265 266 267 268 269 270 271 272 273 274 275 276 277 278 279 280 281 282 283 284 285 286 287 288 289 290 291 292 293 294 295 296 297 298 299 300 301 302 303 304 305 306 307 308 309 310 311 312 313 314 315 316 317 318 319 320 321 322 323 324 325 326 327 328 329 330 331 332 333 334 335 336 337 338 339 340 341 342 343 344 345 346 347 348 349 350 351 352 353 354 355 356 357 358 359 360 361 362 363 364 365 366 367 368 369 370 371 372 373 374 375 376 377 378 379 380 381 382 383 384 385 386 387 388 389 390 391 392 393 394 395 396 397 398 399 400 401 402 403 404 405 406 407 408 409 410 411 412 413 414 415 416 417 418 419 420 421 422 423 424 425 426 427 428 429 430 431 432 433 434 435 436 437 438 439 440 441 442 443 444 445 446 447 448 449 450 451 452 453 454 455 456 457 458 459 460 461 462 463 464 465 466 467 468 469 470 471 472 473 474 475 476 477 478 479 480 481 482 483 484 485 486 487 488 489 490 491 492 493 494 495 496 497 498 499 500 501 502 503 504 505 506 507 508 509 510 511 512 513 514 515 516 517 518 519 520 521 522 523 524 525 526 527 528 529 530 531 532 533 534 535 536 537 538 539 540 541 542 543 544 545 546 547 548 549 550 551 552 553 554 555 556 557 558 559 560 561 562 563 564 565 566 567 568 569 570 571 572 573 574 575 576 577 578 579 580 581 582 583 584 585 586 587 588 589 590 591 592 593 594 595 596 597 598 599 600 601 602 603 604 605 606 607 608 609 610 611 612 613 614 615 616 617 618 619 620 621 622 623 624 625 626 627 628 629 630 631 632 633 634 635 636 637 638 639 640 641 642 643 644 645 646 647 648 649 650 651 652 653 654 655 656 657 658 659 660 661 662 663 664 665 666 667 668 669 670 671 672 673 674 675 676 677 678 679 680 681 682 683 684 685 686 687 688 689 690 691 692 693 694 695 696 697 698 699 700 701 702 703 704 705 706 707 708 709 710 711 712 713 714 715 716 717 718 719 720 721 722 723 724 725 726 727 728 729 730 731 732 733 734 735 736 737 738 739 740 741 742 743 744 745 746 747 748 749 750 751 752 753 754 755 756 757 758 759 760 761 762 763 764 765 766 767 768 769 770 771 772 773 774 775 776 777 778 779 780 781 782 783 784 785 786 787 788 789 790 791 792 793 794 795 796 797 798 799 800 801 802 803 804 805 806 807 808 809 810 811 812 813 814 815 816 817 818 819 820 821 822 823 824 825 826 827 828 829 830 831 832 833 834 835 836 837 838 839 840 841 842 843 844 845 846 847 848 849 850 851 852 853 854 855 856 857 858 859 860 861 862 863 864 865 866 867 868 869 870 871 872 873 874 875 876 877 878 879 880 881 882 883 884 885 886 887 888 889 890 891 0
-891 0
891 -487 0
891 -890 0
14 61 52 65 -889 -872 -855 -838 -821 -804 -787 -770 -753 -730 -713 -690 -673 -650 -627 -598 -565 -558 -550 -535 -526 -510 890 0
889 -888 0
889 -594 0
889 -595 0
889 -596 0
889 -597 0
-887 -882 -877 888 0
887 -668 0
887 -669 0
887 -590 0
887 -883 0
887 -884 0
887 -885 0
887 -886 0
887 -591 0
887 -73 0
887 -72 0
887 -57 0
887 -56 0
887 -39 0
887 -38 0
887 -37 0
-3 75 886 0
-6 -75 885 0
-45 -74 884 0
-42 74 883 0
882 -662 0
882 -663 0
882 -878 0
882 -879 0
882 -581 0
882 -880 0
882 -881 0
882 -582 0
882 -71 0
882 -70 0
882 -54 0
882 -53 0
882 -26 0
882 -25 0
882 -24 0
-2 75 881 0
-4 -75 880 0
-32 -74 879 0
-29 74 878 0
877 -654 0
877 -655 0
877 -571 0
877 -873 0
877 -874 0
877 -875 0
877 -876 0
877 -573 0
877 -69 0
877 -68 0
877 -48 0
877 -47 0
877 -12 0
877 -11 0
877 -10 0
-1 75 876 0
-5 -75 875 0
-19 -74 874 0
-16 74 873 0
872 -871 0
872 -594 0
872 -595 0
872 -596 0
872 -597 0
-870 -865 -860 871 0
870 -708 0
870 -866 0
870 -748 0
870 -749 0
870 -867 0
870 -709 0
870 -868 0
870 -869 0
870 -40 0
870 -39 0
870 -38 0
870 -37 0
870 -36 0
870 -35 0
870 -34 0
-3 14 869 0
-6 -14 868 0
-14 -45 867 0
14 -42 866 0
865 -702 0
865 -861 0
865 -742 0
865 -703 0
865 -862 0
865 -743 0
865 -863 0
865 -864 0
865 -27 0
865 -26 0
865 -25 0
865 -24 0
865 -23 0
865 -22 0
865 -21 0
-2 14 864 0
-4 -14 863 0
-14 -32 862 0
-29 14 861 0
860 -856 0
860 -735 0
860 -857 0
860 -736 0
860 -695 0
860 -696 0
860 -858 0
860 -859 0
860 -13 0
860 -12 0
860 -11 0
860 -10 0
860 -9 0
860 -8 0
860 -7 0
-1 14 859 0
-5 -14 858 0
-14 -19 857 0
-16 14 856 0
855 -854 0
855 -594 0
855 -595 0
855 -596 0
855 -597 0
-853 -848 -843 854 0
853 -646 0
853 -849 0
853 -647 0
853 -850 0
853 -748 0
853 -749 0
853 -851 0
853 -852 0
853 -73 0
853 -72 0
853 -56 0
853 -39 0
853 -38 0
853 -37 0
853 -36 0
-6 -51 852 0
-3 51 851 0
-45 -50 850 0
-42 50 849 0
848 -639 0
848 -844 0
848 -742 0
848 -743 0
848 -640 0
848 -845 0
848 -846 0
848 -847 0
848 -71 0
848 -70 0
848 -53 0
848 -26 0
848 -25 0
848 -24 0
848 -23 0
-4 -51 847 0
-2 51 846 0
-32 -50 845 0
-29 50 844 0
843 -839 0
843 -631 0
843 -735 0
843 -736 0
843 -633 0
843 -840 0
843 -841 0
843 -842 0
843 -69 0
843 -68 0
843 -47 0
843 -12 0
843 -11 0
843 -10 0
843 -9 0
-5 -51 842 0
-1 51 841 0
-19 -50 840 0
-16 50 839 0
838 -837 0
838 -594 0
838 -595 0
838 -596 0
838 -597 0
-836 -831 -826 837 0
836 -832 0
836 -833 0
836 -646 0
836 -647 0
836 -668 0
836 -669 0
836 -834 0
836 -835 0
836 -72 0
836 -57 0
836 -40 0
836 -39 0
836 -38 0
836 -37 0
836 -34 0
-6 -52 835 0
-3 52 834 0
-45 -52 833 0
-42 52 832 0
831 -827 0
831 -639 0
831 -662 0
831 -663 0
831 -640 0
831 -828 0
831 -829 0
831 -830 0
831 -70 0
831 -54 0
831 -27 0
831 -26 0
831 -25 0
831 -24 0
831 -21 0
-32 -52 830 0
-4 -52 829 0
-2 52 828 0
-29 52 827 0
826 -822 0
826 -823 0
826 -631 0
826 -654 0
826 -655 0
826 -633 0
826 -824 0
826 -825 0
826 -68 0
826 -48 0
826 -13 0
826 -12 0
826 -11 0
826 -10 0
826 -7 0
-5 -52 825 0
-1 52 824 0
-19 -52 823 0
-16 52 822 0
821 -820 0
821 -594 0
821 -595 0
821 -596 0
821 -597 0
-819 -814 -809 820 0
819 -815 0
819 -816 0
819 -708 0
819 -668 0
819 -669 0
819 -709 0
819 -817 0
819 -818 0
819 -58 0
819 -57 0
819 -56 0
819 -40 0
819 -38 0
819 -37 0
819 -35 0
-45 -51 818 0
-6 -50 817 0
-42 51 816 0
-3 50 815 0
814 -810 0
814 -811 0
814 -812 0
814 -702 0
814 -703 0
814 -662 0
814 -663 0
814 -813 0
814 -55 0
814 -54 0
814 -53 0
814 -27 0
814 -25 0
814 -24 0
814 -22 0
-32 -51 813 0
-4 -50 812 0
-29 51 811 0
-2 50 810 0
809 -805 0
809 -806 0
809 -807 0
809 -654 0
809 -655 0
809 -695 0
809 -696 0
809 -808 0
809 -49 0
809 -48 0
809 -47 0
809 -13 0
809 -11 0
809 -10 0
809 -8 0
-19 -51 808 0
-5 -50 807 0
-16 51 806 0
-1 50 805 0
804 -803 0
804 -594 0
804 -595 0
804 -596 0
804 -597 0
-802 -797 -792 803 0
802 -798 0
802 -748 0
802 -749 0
802 -590 0
802 -591 0
802 -799 0
802 -800 0
802 -801 0
802 -72 0
802 -56 0
802 -40 0
802 -39 0
802 -38 0
802 -37 0
802 -36 0
-6 -60 801 0
-3 60 800 0
-42 59 799 0
-45 -59 798 0
797 -793 0
797 -794 0
797 -742 0
797 -743 0
797 -581 0
797 -582 0
797 -795 0
797 -796 0
797 -70 0
797 -53 0
797 -27 0
797 -26 0
797 -25 0
797 -24 0
797 -23 0
-4 -60 796 0
-2 60 795 0
-32 -59 794 0
-29 59 793 0
792 -788 0
792 -735 0
792 -571 0
792 -736 0
792 -573 0
792 -789 0
792 -790 0
792 -791 0
792 -68 0
792 -47 0
792 -13 0
792 -12 0
792 -11 0
792 -10 0
792 -9 0
-5 -60 791 0
-1 60 790 0
-16 59 789 0
-19 -59 788 0
787 -786 0
787 -594 0
787 -595 0
787 -596 0
787 -597 0
-785 -780 -775 786 0
785 -623 0
785 -624 0
785 -781 0
785 -782 0
785 -590 0
785 -783 0
785 -784 0
785 -591 0
785 -72 0
785 -57 0
785 -40 0
785 -39 0
785 -38 0
785 -37 0
785 -34 0
-3 61 784 0
-6 -61 783 0
-45 -61 782 0
-42 61 781 0
780 -614 0
780 -615 0
780 -776 0
780 -777 0
780 -581 0
780 -778 0
780 -779 0
780 -582 0
780 -70 0
780 -54 0
780 -27 0
780 -26 0
780 -25 0
780 -24 0
780 -21 0
-2 61 779 0
-4 -61 778 0
-32 -61 777 0
-29 61 776 0
775 -604 0
775 -605 0
775 -771 0
775 -772 0
775 -571 0
775 -773 0
775 -774 0
775 -573 0
775 -68 0
775 -48 0
775 -13 0
775 -12 0
775 -11 0
775 -10 0
775 -7 0
-1 61 774 0
-5 -61 773 0
-19 -61 772 0
-16 61 771 0
770 -769 0
770 -594 0
770 -595 0
770 -596 0
770 -597 0
-768 -763 -758 769 0
768 -764 0
768 -623 0
768 -624 0
768 -708 0
768 -709 0
768 -765 0
768 -766 0
768 -767 0
768 -57 0
768 -56 0
768 -40 0
768 -39 0
768 -38 0
768 -37 0
768 -35 0
-45 -60 767 0
-3 59 766 0
-6 -59 765 0
-42 60 764 0
763 -759 0
763 -614 0
763 -615 0
763 -702 0
763 -703 0
763 -760 0
763 -761 0
763 -762 0
763 -54 0
763 -53 0
763 -27 0
763 -26 0
763 -25 0
763 -24 0
763 -22 0
-32 -60 762 0
-2 59 761 0
-4 -59 760 0
-29 60 759 0
758 -604 0
758 -605 0
758 -695 0
758 -754 0
758 -755 0
758 -696 0
758 -756 0
758 -757 0
758 -48 0
758 -47 0
758 -13 0
758 -12 0
758 -11 0
758 -10 0
758 -8 0
-19 -60 757 0
-5 -59 756 0
-1 59 755 0
-16 60 754 0
753 -752 0
753 -594 0
753 -595 0
753 -596 0
753 -597 0
-751 -744 -737 752 0
751 -621 0
751 -745 0
751 -746 0
751 -622 0
751 -747 0
751 -748 0
751 -749 0
751 -750 0
751 -82 0
751 -72 0
751 -56 0
751 -40 0
751 -39 0
751 -38 0
751 -36 0
-6 -64 750 0
-14 -46 749 0
14 -43 748 0
-45 -63 747 0
-42 63 746 0
-3 64 745 0
744 -612 0
744 -738 0
744 -739 0
744 -613 0
744 -740 0
744 -741 0
744 -742 0
744 -743 0
744 -81 0
744 -70 0
744 -53 0
744 -27 0
744 -26 0
744 -25 0
744 -23 0
-14 -33 743 0
-30 14 742 0
-32 -63 741 0
-4 -64 740 0
-29 63 739 0
-2 64 738 0
737 -602 0
737 -731 0
737 -732 0
737 -603 0
737 -733 0
737 -734 0
737 -735 0
737 -736 0
737 -80 0
737 -68 0
737 -47 0
737 -13 0
737 -12 0
737 -11 0
737 -9 0
-14 -20 736 0
-17 14 735 0
-19 -63 734 0
-5 -64 733 0
-16 63 732 0
-1 64 731 0
730 -729 0
730 -594 0
730 -595 0
730 -596 0
730 -597 0
-728 -723 -718 729 0
728 -588 0
728 -589 0
728 -724 0
728 -725 0
728 -726 0
728 -621 0
728 -622 0
728 -727 0
728 -82 0
728 -72 0
728 -67 0
728 -57 0
728 -40 0
728 -39 0
728 -34 0
-6 -65 727 0
-45 -65 726 0
-42 65 725 0
-3 65 724 0
723 -579 0
723 -580 0
723 -719 0
723 -720 0
723 -721 0
723 -722 0
723 -612 0
723 -613 0
723 -81 0
723 -70 0
723 -66 0
723 -54 0
723 -27 0
723 -26 0
723 -21 0
-32 -65 722 0
-4 -65 721 0
-29 65 720 0
-2 65 719 0
718 -569 0
718 -570 0
718 -714 0
718 -715 0
718 -716 0
718 -717 0
718 -602 0
718 -603 0
718 -80 0
718 -68 0
718 -62 0
718 -48 0
718 -13 0
718 -12 0
718 -7 0
-19 -65 717 0
-5 -65 716 0
-16 65 715 0
-1 65 714 0
713 -712 0
713 -594 0
713 -595 0
713 -596 0
713 -597 0
-711 -704 -697 712 0
711 -705 0
711 -706 0
711 -707 0
711 -588 0
711 -589 0
711 -708 0
711 -709 0
711 -710 0
711 -67 0
711 -57 0
711 -56 0
711 -40 0
711 -39 0
711 -37 0
711 -35 0
-6 -63 710 0
-14 -44 709 0
14 -41 708 0
-45 -64 707 0
-42 64 706 0
-3 63 705 0
704 -698 0
704 -699 0
704 -700 0
704 -701 0
704 -579 0
704 -580 0
704 -702 0
704 -703 0
704 -66 0
704 -54 0
704 -53 0
704 -27 0
704 -26 0
704 -24 0
704 -22 0
-14 -31 703 0
-28 14 702 0
-32 -64 701 0
-4 -63 700 0
-29 64 699 0
-2 63 698 0
697 -691 0
697 -692 0
697 -693 0
697 -694 0
697 -569 0
697 -570 0
697 -695 0
697 -696 0
697 -62 0
697 -48 0
697 -47 0
697 -13 0
697 -12 0
697 -10 0
697 -8 0
-15 14 696 0
-14 -18 695 0
-19 -64 694 0
-5 -63 693 0
-16 64 692 0
-1 63 691 0
690 -689 0
690 -594 0
690 -595 0
690 -596 0
690 -597 0
-688 -683 -678 689 0
688 -684 0
688 -685 0
688 -686 0
688 -623 0
688 -624 0
688 -646 0
688 -647 0
688 -687 0
688 -72 0
688 -58 0
688 -57 0
688 -56 0
688 -40 0
688 -38 0
688 -37 0
-45 -75 687 0
-6 -74 686 0
-42 75 685 0
-3 74 684 0
683 -679 0
683 -680 0
683 -614 0
683 -615 0
683 -639 0
683 -640 0
683 -681 0
683 -682 0
683 -70 0
683 -55 0
683 -54 0
683 -53 0
683 -27 0
683 -25 0
683 -24 0
-29 75 682 0
-32 -75 681 0
-4 -74 680 0
-2 74 679 0
678 -674 0
678 -675 0
678 -604 0
678 -605 0
678 -631 0
678 -633 0
678 -676 0
678 -677 0
678 -68 0
678 -49 0
678 -48 0
678 -47 0
678 -13 0
678 -11 0
678 -10 0
-16 75 677 0
-19 -75 676 0
-5 -74 675 0
-1 74 674 0
673 -672 0
673 -594 0
673 -595 0
673 -596 0
673 -597 0
-671 -664 -657 672 0
671 -665 0
671 -666 0
671 -667 0
671 -621 0
671 -622 0
671 -668 0
671 -669 0
671 -670 0
671 -82 0
671 -72 0
671 -57 0
671 -56 0
671 -40 0
671 -39 0
671 -38 0
-45 -76 670 0
-46 -52 669 0
-43 52 668 0
-6 -77 667 0
-42 76 666 0
-3 77 665 0
664 -658 0
664 -659 0
664 -660 0
664 -661 0
664 -612 0
664 -613 0
664 -662 0
664 -663 0
664 -81 0
664 -70 0
664 -54 0
664 -53 0
664 -27 0
664 -26 0
664 -25 0
-33 -52 663 0
-30 52 662 0
-32 -76 661 0
-4 -77 660 0
-29 76 659 0
-2 77 658 0
657 -651 0
657 -652 0
657 -653 0
657 -602 0
657 -603 0
657 -654 0
657 -655 0
657 -656 0
657 -80 0
657 -68 0
657 -48 0
657 -47 0
657 -13 0
657 -12 0
657 -11 0
-19 -76 656 0
-20 -52 655 0
-17 52 654 0
-5 -77 653 0
-16 76 652 0
-1 77 651 0
650 -649 0
650 -594 0
650 -595 0
650 -596 0
650 -597 0
-648 -641 -634 649 0
648 -642 0
648 -643 0
648 -644 0
648 -645 0
648 -588 0
648 -589 0
648 -646 0
648 -647 0
648 -72 0
648 -67 0
648 -57 0
648 -56 0
648 -40 0
648 -39 0
648 -37 0
-44 -52 647 0
-41 52 646 0
-45 -77 645 0
-6 -76 644 0
-42 77 643 0
-3 76 642 0
641 -635 0
641 -636 0
641 -637 0
641 -638 0
641 -579 0
641 -580 0
641 -639 0
641 -640 0
641 -70 0
641 -66 0
641 -54 0
641 -53 0
641 -27 0
641 -26 0
641 -24 0
-31 -52 640 0
-28 52 639 0
-32 -77 638 0
-4 -76 637 0
-29 77 636 0
-2 76 635 0
634 -628 0
634 -629 0
634 -630 0
634 -569 0
634 -570 0
634 -631 0
634 -632 0
634 -633 0
634 -68 0
634 -62 0
634 -48 0
634 -47 0
634 -13 0
634 -12 0
634 -10 0
-15 52 633 0
-19 -77 632 0
-18 -52 631 0
-5 -76 630 0
-16 77 629 0
-1 76 628 0
627 -626 0
627 -594 0
627 -595 0
627 -596 0
627 -597 0
-625 -616 -607 626 0
625 -617 0
625 -618 0
625 -619 0
625 -620 0
625 -621 0
625 -622 0
625 -623 0
625 -624 0
625 -82 0
625 -73 0
625 -72 0
625 -57 0
625 -56 0
625 -39 0
625 -38 0
-46 -61 624 0
-43 61 623 0
-44 -65 622 0
-41 65 621 0
-45 -78 620 0
-6 -79 619 0
-42 78 618 0
-3 79 617 0
616 -608 0
616 -609 0
616 -610 0
616 -611 0
616 -612 0
616 -613 0
616 -614 0
616 -615 0
616 -81 0
616 -71 0
616 -70 0
616 -54 0
616 -53 0
616 -26 0
616 -25 0
-33 -61 615 0
-30 61 614 0
-31 -65 613 0
-28 65 612 0
-32 -78 611 0
-4 -79 610 0
-29 78 609 0
-2 79 608 0
607 -599 0
607 -600 0
607 -601 0
607 -602 0
607 -603 0
607 -604 0
607 -605 0
607 -606 0
607 -80 0
607 -69 0
607 -68 0
607 -48 0
607 -47 0
607 -12 0
607 -11 0
-19 -78 606 0
-20 -61 605 0
-17 61 604 0
-18 -65 603 0
-15 65 602 0
-5 -79 601 0
-16 78 600 0
-1 79 599 0
598 -593 0
598 -594 0
598 -595 0
598 -596 0
598 -597 0
-5 4 597 0
-4 6 596 0
-3 2 595 0
-2 1 594 0
-592 -583 -574 593 0
592 -584 0
592 -585 0
592 -586 0
592 -587 0
592 -588 0
592 -589 0
592 -590 0
592 -591 0
592 -72 0
592 -67 0
592 -58 0
592 -57 0
592 -56 0
592 -40 0
592 -37 0
-41 61 591 0
-44 -61 590 0
-46 -65 589 0
-43 65 588 0
-45 -79 587 0
-6 -78 586 0
-42 79 585 0
-3 78 584 0
583 -575 0
583 -576 0
583 -577 0
583 -578 0
583 -579 0
583 -580 0
583 -581 0
583 -582 0
583 -70 0
583 -66 0
583 -55 0
583 -54 0
583 -53 0
583 -27 0
583 -24 0
-28 61 582 0
-31 -61 581 0
-33 -65 580 0
-30 65 579 0
-32 -79 578 0
-4 -78 577 0
-29 79 576 0
-2 78 575 0
574 -566 0
574 -567 0
574 -568 0
574 -569 0
574 -570 0
574 -571 0
574 -572 0
574 -573 0
574 -68 0
574 -62 0
574 -49 0
574 -48 0
574 -47 0
574 -13 0
574 -10 0
-15 61 573 0
-19 -79 572 0
-18 -61 571 0
-20 -65 570 0
-17 65 569 0
-5 -78 568 0
-16 79 567 0
-1 78 566 0
565 -561 0
565 -564 0
51 -544 -543 -563 -562 564 0
563 -541 0
563 74 0
562 -554 0
562 76 0
50 -520 -519 -560 -559 561 0
560 -517 0
560 59 0
559 -531 0
559 63 0
558 -553 0
558 -557 0
60 -540 -539 -556 -555 557 0
556 -545 0
556 75 0
555 -554 0
555 78 0
64 -548 -547 554 0
59 -504 -503 -552 -551 553 0
552 -501 0
552 50 0
551 -527 0
551 63 0
550 -538 0
550 -549 0
64 -548 -547 -546 -542 549 0
548 77 0
548 51 0
547 79 0
547 60 0
546 -545 0
546 77 0
51 -544 -543 545 0
544 64 0
544 76 0
543 74 0
543 60 0
542 -541 0
542 79 0
60 -540 -539 541 0
540 75 0
540 51 0
539 78 0
539 64 0
63 -489 -537 -488 -536 538 0
537 -494 0
537 50 0
536 -511 0
536 59 0
535 -530 0
535 -534 0
75 -516 -515 -533 -532 534 0
533 -521 0
533 60 0
532 -531 0
532 78 0
77 -524 -523 531 0
74 -500 -499 -529 -528 530 0
529 -505 0
529 51 0
528 -527 0
528 76 0
79 -508 -507 527 0
526 -514 0
526 -525 0
77 -524 -523 -522 -518 525 0
524 64 0
524 50 0
523 75 0
523 79 0
522 -521 0
522 64 0
50 -520 -519 521 0
520 75 0
520 59 0
519 77 0
519 63 0
518 -517 0
518 79 0
75 -516 -515 517 0
516 60 0
516 50 0
515 77 0
515 78 0
76 -493 -492 -513 -512 514 0
513 -490 0
513 51 0
512 -511 0
512 74 0
78 -497 -496 511 0
510 -498 0
510 -509 0
79 -508 -507 -506 -502 509 0
508 59 0
508 64 0
507 77 0
507 74 0
506 -505 0
506 64 0
59 -504 -503 505 0
504 74 0
504 50 0
503 79 0
503 63 0
502 -501 0
502 77 0
74 -500 -499 501 0
500 59 0
500 51 0
499 79 0
499 76 0
78 -497 -496 -495 -491 498 0
497 60 0
497 63 0
496 75 0
496 76 0
495 -494 0
495 75 0
76 -493 -492 494 0
493 63 0
493 51 0
492 78 0
492 74 0
491 -490 0
491 60 0
63 -489 -488 490 0
489 50 0
489 76 0
488 78 0
488 59 0
-486 -161 487 0
486 -194 0
486 -223 0
486 -246 0
486 -269 0
486 -286 0
486 -309 0
486 -326 0
486 -349 0
486 -366 0
486 -383 0
486 -400 0
486 -417 0
486 -434 0
486 -451 0
486 -468 0
486 -485 0
-193 -192 -191 -190 -484 485 0
484 -473 0
484 -478 0
484 -483 0
39 38 37 56 57 73 72 -187 -482 -481 -480 -479 -186 -265 -264 483 0
482 75 0
482 6 0
481 -75 0
481 3 0
480 74 0
480 45 0
479 42 0
479 -74 0
25 24 26 54 53 71 70 -178 -477 -476 -177 -475 -474 -259 -258 478 0
477 75 0
477 4 0
476 -75 0
476 2 0
475 74 0
475 32 0
474 -74 0
474 29 0
12 11 10 69 68 48 47 -169 -472 -471 -470 -469 -167 -251 -250 473 0
472 75 0
472 5 0
471 -75 0
471 1 0
470 74 0
470 19 0
469 -74 0
469 16 0
-193 -192 -191 -190 -467 468 0
467 -456 0
467 -461 0
467 -466 0
39 38 35 37 36 34 40 -465 -464 -305 -463 -345 -344 -462 -304 466 0
465 14 0
465 6 0
464 3 0
464 -14 0
463 45 0
463 14 0
462 42 0
462 -14 0
25 24 23 22 21 27 26 -460 -459 -339 -458 -299 -338 -457 -298 461 0
460 14 0
460 4 0
459 2 0
459 -14 0
458 32 0
458 14 0
457 29 0
457 -14 0
13 9 7 8 12 11 10 -292 -455 -454 -291 -332 -453 -331 -452 456 0
455 14 0
455 5 0
454 1 0
454 -14 0
453 14 0
453 19 0
452 16 0
452 -14 0
-193 -192 -191 -190 -450 451 0
450 -439 0
450 -444 0
450 -449 0
39 38 37 36 56 73 72 -448 -447 -345 -344 -446 -243 -445 -242 449 0
448 51 0
448 6 0
447 -51 0
447 3 0
446 45 0
446 50 0
445 42 0
445 -50 0
25 24 23 26 53 71 70 -443 -442 -441 -236 -339 -338 -440 -235 444 0
443 51 0
443 4 0
442 -51 0
442 2 0
441 50 0
441 32 0
440 -50 0
440 29 0
9 12 11 10 69 68 47 -438 -437 -436 -229 -332 -331 -227 -435 439 0
438 51 0
438 5 0
437 -51 0
437 1 0
436 50 0
436 19 0
435 -50 0
435 16 0
-193 -192 -191 -190 -433 434 0
433 -422 0
433 -427 0
433 -432 0
39 38 37 34 40 57 72 -431 -430 -265 -264 -243 -242 -429 -428 432 0
431 -52 0
431 3 0
430 52 0
430 6 0
429 45 0
429 52 0
428 42 0
428 -52 0
25 24 21 27 26 54 70 -426 -425 -424 -236 -259 -258 -235 -423 427 0
426 52 0
426 32 0
425 -52 0
425 2 0
424 52 0
424 4 0
423 -52 0
423 29 0
13 7 12 11 10 68 48 -421 -420 -229 -251 -250 -227 -419 -418 422 0
421 -52 0
421 1 0
420 52 0
420 5 0
419 52 0
419 19 0
418 -52 0
418 16 0
-193 -192 -191 -190 -416 417 0
416 -405 0
416 -410 0
416 -415 0
38 35 37 56 40 58 57 -414 -413 -305 -265 -264 -304 -412 -411 415 0
414 45 0
414 51 0
413 50 0
413 6 0
412 42 0
412 -51 0
411 -50 0
411 3 0
25 24 22 27 54 53 55 -409 -259 -258 -299 -298 -408 -407 -406 410 0
409 51 0
409 32 0
408 50 0
408 4 0
407 -51 0
407 29 0
406 -50 0
406 2 0
13 8 11 10 49 48 47 -404 -292 -291 -251 -250 -403 -402 -401 405 0
404 51 0
404 19 0
403 50 0
403 5 0
402 -51 0
402 16 0
401 -50 0
401 1 0
-193 -192 -191 -190 -399 400 0
399 -388 0
399 -393 0
399 -398 0
39 38 37 36 56 40 72 -397 -396 -395 -187 -186 -345 -344 -394 398 0
397 60 0
397 6 0
396 -60 0
396 3 0
395 42 0
395 -59 0
394 59 0
394 45 0
25 24 23 27 26 53 70 -392 -391 -178 -177 -339 -338 -390 -389 393 0
392 60 0
392 4 0
391 -60 0
391 2 0
390 59 0
390 32 0
389 -59 0
389 29 0
13 9 12 11 10 68 47 -387 -386 -385 -169 -332 -167 -331 -384 388 0
387 60 0
387 5 0
386 -60 0
386 1 0
385 -59 0
385 16 0
384 59 0
384 19 0
-193 -192 -191 -190 -382 383 0
382 -371 0
382 -376 0
382 -381 0
39 38 37 34 40 57 72 -187 -380 -379 -186 -378 -377 -220 -219 381 0
380 61 0
380 6 0
379 -61 0
379 3 0
378 45 0
378 61 0
377 42 0
377 -61 0
25 24 21 27 26 54 70 -178 -375 -374 -177 -373 -372 -211 -210 376 0
375 61 0
375 4 0
374 -61 0
374 2 0
373 61 0
373 32 0
372 -61 0
372 29 0
13 7 12 11 10 68 48 -169 -370 -369 -167 -368 -367 -201 -200 371 0
370 61 0
370 5 0
369 -61 0
369 1 0
368 61 0
368 19 0
367 -61 0
367 16 0
-193 -192 -191 -190 -365 366 0
365 -354 0
365 -359 0
365 -364 0
39 38 35 37 56 40 57 -363 -362 -361 -305 -304 -220 -219 -360 364 0
363 60 0
363 45 0
362 -59 0
362 3 0
361 59 0
361 6 0
360 42 0
360 -60 0
25 24 22 27 26 54 53 -358 -357 -356 -299 -298 -211 -210 -355 359 0
358 60 0
358 32 0
357 -59 0
357 2 0
356 59 0
356 4 0
355 -60 0
355 29 0
13 8 12 11 10 48 47 -353 -352 -292 -351 -350 -291 -201 -200 354 0
353 60 0
353 19 0
352 59 0
352 5 0
351 -59 0
351 1 0
350 -60 0
350 16 0
-193 -192 -191 -190 -348 349 0
348 -333 0
348 -340 0
348 -347 0
39 38 36 56 40 72 82 -346 -345 -344 -343 -218 -342 -341 -217 347 0
346 64 0
346 6 0
345 46 0
345 14 0
344 43 0
344 -14 0
343 63 0
343 45 0
342 42 0
342 -63 0
341 -64 0
341 3 0
25 23 27 26 53 81 70 -339 -338 -337 -336 -209 -335 -334 -208 340 0
339 33 0
339 14 0
338 30 0
338 -14 0
337 63 0
337 32 0
336 64 0
336 4 0
335 -63 0
335 29 0
334 -64 0
334 2 0
13 9 12 11 68 47 80 -332 -331 -330 -329 -199 -328 -327 -198 333 0
332 14 0
332 20 0
331 17 0
331 -14 0
330 63 0
330 19 0
329 64 0
329 5 0
328 -63 0
328 16 0
327 -64 0
327 1 0
-193 -192 -191 -190 -325 326 0
325 -314 0
325 -319 0
325 -324 0
39 34 67 40 57 72 82 -323 -218 -217 -322 -321 -320 -185 -184 324 0
323 65 0
323 6 0
322 65 0
322 45 0
321 42 0
321 -65 0
320 -65 0
320 3 0
21 27 26 54 81 66 70 -209 -208 -318 -317 -316 -315 -176 -175 319 0
318 65 0
318 32 0
317 65 0
317 4 0
316 -65 0
316 29 0
315 -65 0
315 2 0
13 7 12 68 48 62 80 -199 -198 -313 -312 -311 -310 -166 -165 314 0
313 65 0
313 19 0
312 65 0
312 5 0
311 -65 0
311 16 0
310 -65 0
310 1 0
-193 -192 -191 -190 -308 309 0
308 -293 0
308 -300 0
308 -307 0
39 35 37 56 67 40 57 -306 -305 -304 -185 -184 -303 -302 -301 307 0
306 63 0
306 6 0
305 44 0
305 14 0
304 41 0
304 -14 0
303 64 0
303 45 0
302 42 0
302 -64 0
301 -63 0
301 3 0
24 22 27 26 54 53 66 -299 -298 -176 -175 -297 -296 -295 -294 300 0
299 31 0
299 14 0
298 28 0
298 -14 0
297 64 0
297 32 0
296 63 0
296 4 0
295 -64 0
295 29 0
294 -63 0
294 2 0
13 8 12 10 48 62 47 -292 -291 -166 -165 -290 -289 -288 -287 293 0
292 15 0
292 -14 0
291 14 0
291 18 0
290 64 0
290 19 0
289 63 0
289 5 0
288 -64 0
288 16 0
287 -63 0
287 1 0
-193 -192 -191 -190 -285 286 0
285 -274 0
285 -279 0
285 -284 0
38 37 56 40 58 57 72 -283 -243 -242 -220 -219 -282 -281 -280 284 0
283 75 0
283 45 0
282 74 0
282 6 0
281 42 0
281 -75 0
280 -74 0
280 3 0
25 24 27 54 53 55 70 -278 -277 -236 -235 -211 -210 -276 -275 279 0
278 -75 0
278 29 0
277 75 0
277 32 0
276 74 0
276 4 0
275 -74 0
275 2 0
13 11 10 68 49 48 47 -273 -272 -229 -227 -201 -200 -271 -270 274 0
273 -75 0
273 16 0
272 75 0
272 19 0
271 74 0
271 5 0
270 -74 0
270 1 0
-193 -192 -191 -190 -268 269 0
268 -253 0
268 -260 0
268 -267 0
39 38 56 40 57 72 82 -266 -265 -264 -218 -217 -263 -262 -261 267 0
266 45 0
266 76 0
265 46 0
265 52 0
264 43 0
264 -52 0
263 77 0
263 6 0
262 42 0
262 -76 0
261 -77 0
261 3 0
25 27 26 54 53 81 70 -259 -258 -209 -208 -257 -256 -255 -254 260 0
259 52 0
259 33 0
258 -52 0
258 30 0
257 76 0
257 32 0
256 77 0
256 4 0
255 -76 0
255 29 0
254 -77 0
254 2 0
13 12 11 68 48 47 80 -252 -251 -250 -199 -198 -249 -248 -247 253 0
252 76 0
252 19 0
251 52 0
251 20 0
250 -52 0
250 17 0
249 77 0
249 5 0
248 -76 0
248 16 0
247 -77 0
247 1 0
-193 -192 -191 -190 -245 246 0
245 -230 0
245 -237 0
245 -244 0
39 37 56 67 40 57 72 -243 -242 -185 -184 -241 -240 -239 -238 244 0
243 44 0
243 52 0
242 41 0
242 -52 0
241 77 0
241 45 0
240 76 0
240 6 0
239 42 0
239 -77 0
238 -76 0
238 3 0
24 27 26 54 53 66 70 -236 -235 -176 -175 -234 -233 -232 -231 237 0
236 52 0
236 31 0
235 -52 0
235 28 0
234 77 0
234 32 0
233 76 0
233 4 0
232 -77 0
232 29 0
231 -76 0
231 2 0
13 12 10 68 48 62 47 -229 -228 -227 -166 -165 -226 -225 -224 230 0
229 -52 0
229 15 0
228 77 0
228 19 0
227 52 0
227 18 0
226 76 0
226 5 0
225 -77 0
225 16 0
224 -76 0
224 1 0
-193 -192 -191 -190 -222 223 0
222 -203 0
222 -212 0
222 -221 0
39 38 56 57 73 72 82 -220 -219 -218 -217 -216 -215 -214 -213 221 0
220 46 0
220 61 0
219 43 0
219 -61 0
218 44 0
218 65 0
217 41 0
217 -65 0
216 78 0
216 45 0
215 79 0
215 6 0
214 42 0
214 -78 0
213 -79 0
213 3 0
25 26 54 53 81 71 70 -211 -210 -209 -208 -207 -206 -205 -204 212 0
211 61 0
211 33 0
210 -61 0
210 30 0
209 65 0
209 31 0
208 -65 0
208 28 0
207 78 0
207 32 0
206 79 0
206 4 0
205 -78 0
205 29 0
204 -79 0
204 2 0
12 11 69 68 48 47 80 -202 -201 -200 -199 -198 -197 -196 -195 203 0
202 78 0
202 19 0
201 61 0
201 20 0
200 -61 0
200 17 0
199 65 0
199 18 0
198 -65 0
198 15 0
197 79 0
197 5 0
196 -78 0
196 16 0
195 -79 0
195 1 0
-193 -192 -191 -190 -189 194 0
193 5 0
193 -4 0
192 4 0
192 -6 0
191 3 0
191 -2 0
190 2 0
190 -1 0
189 -170 0
189 -179 0
189 -188 0
37 56 67 40 58 57 72 -187 -186 -185 -184 -183 -182 -181 -180 188 0
187 41 0
187 -61 0
186 44 0
186 61 0
185 65 0
185 46 0
184 43 0
184 -65 0
183 79 0
183 45 0
182 78 0
182 6 0
181 42 0
181 -79 0
180 -78 0
180 3 0
24 27 54 53 55 66 70 -178 -177 -176 -175 -174 -173 -172 -171 179 0
178 -61 0
178 28 0
177 61 0
177 31 0
176 65 0
176 33 0
175 -65 0
175 30 0
174 79 0
174 32 0
173 78 0
173 4 0
172 -79 0
172 29 0
171 -78 0
171 2 0
13 10 68 49 48 62 47 -169 -168 -167 -166 -165 -164 -163 -162 170 0
169 -61 0
169 15 0
168 79 0
168 19 0
167 61 0
167 18 0
166 65 0
166 20 0
165 -65 0
165 17 0
164 78 0
164 5 0
163 -79 0
163 16 0
162 -78 0
162 1 0
161 -105 0
161 -121 0
161 -130 0
161 -145 0
161 -153 0
161 -160 0
161 -65 0
161 -61 0
161 -52 0
161 -14 0
-159 -156 160 0
159 -157 0
159 -158 0
159 -138 0
159 -139 0
159 -51 0
-74 -136 158 0
-76 -149 157 0
156 -154 0
156 -155 0
156 -114 0
156 -115 0
156 -50 0
-59 -112 155 0
-63 -126 154 0
-152 -148 153 0
152 -150 0
152 -151 0
152 -134 0
152 -135 0
152 -60 0
-75 -140 151 0
-78 -149 150 0
149 -142 0
149 -143 0
149 -64 0
148 -146 0
148 -147 0
148 -98 0
148 -99 0
148 -59 0
-50 -96 147 0
-63 -122 146 0
-144 -133 145 0
144 -137 0
144 -141 0
144 -142 0
144 -143 0
144 -64 0
-51 -77 143 0
-60 -79 142 0
-77 -140 141 0
140 -138 0
140 -139 0
140 -51 0
-64 -76 139 0
-60 -74 138 0
-79 -136 137 0
136 -134 0
136 -135 0
136 -60 0
-51 -75 135 0
-64 -78 134 0
133 -131 0
133 -83 0
133 -132 0
133 -84 0
133 -63 0
-50 -89 132 0
-59 -106 131 0
-129 -125 130 0
129 -127 0
129 -128 0
129 -110 0
129 -111 0
129 -75 0
-60 -116 128 0
-78 -126 127 0
126 -118 0
126 -119 0
126 -77 0
125 -123 0
125 -124 0
125 -94 0
125 -95 0
125 -74 0
-51 -100 124 0
-76 -122 123 0
122 -102 0
122 -103 0
122 -79 0
-120 -109 121 0
120 -113 0
120 -117 0
120 -118 0
120 -119 0
120 -77 0
-50 -64 119 0
-75 -79 118 0
-64 -116 117 0
116 -114 0
116 -115 0
116 -50 0
-59 -75 115 0
-63 -77 114 0
-79 -112 113 0
112 -110 0
112 -111 0
112 -75 0
-50 -60 111 0
-77 -78 110 0
109 -107 0
109 -108 0
109 -87 0
109 -88 0
109 -76 0
-51 -85 108 0
-74 -106 107 0
106 -91 0
106 -92 0
106 -78 0
-104 -93 105 0
104 -97 0
104 -101 0
104 -102 0
104 -103 0
104 -79 0
-59 -64 103 0
-74 -77 102 0
-64 -100 101 0
100 -98 0
100 -99 0
100 -59 0
-50 -74 99 0
-63 -79 98 0
-77 -96 97 0
96 -94 0
96 -95 0
96 -74 0
-51 -59 95 0
-76 -79 94 0
93 -86 0
93 -90 0
93 -91 0
93 -92 0
93 -78 0
-60 -63 92 0
-75 -76 91 0
-75 -89 90 0
89 -87 0
89 -88 0
89 -76 0
-51 -63 88 0
-74 -78 87 0
-60 -85 86 0
85 -83 0
85 -84 0
85 -63 0
-50 -76 84 0
-59 -78 83 0
